24
58
70
39
102
38
85
89
43
14
53
90
65
84
96
4
78
36
1
110
7
40
72
2
51
91
52
23
50
82
54
29
0
57
108
37
16
63
60
9
86
64
41
34
55
80
13
21
47
66
46
95
3
92
59
99
105
61
19
42
69
71
81
44
48
101
20
75
62
109
22
94
5
6
93
79
83
97
73
104
15
77
27
11
56
107
25
45
100
76
10
8
35
32
18
31
28
87
17
12
